p edge 24 120
e 1 8
e 1 10
e 1 18
e 1 20
e 1 23
e 2 8
e 2 10
e 2 11
e 2 13
e 2 14
e 3 12
e 3 13
e 3 20
e 3 20
e 3 23
e 4 5
e 4 9
e 4 12
e 4 17
e 4 19
e 5 3
e 5 15
e 5 15
e 5 16
e 5 22
e 6 8
e 6 18
e 6 19
e 6 20
e 6 20
e 7 2
e 7 6
e 7 16
e 7 17
e 7 19
e 8 11
e 8 20
e 8 22
e 8 22
e 8 22
e 9 2
e 9 12
e 9 15
e 9 21
e 9 24
e 10 6
e 10 19
e 10 20
e 10 21
e 10 23
e 11 3
e 11 5
e 11 10
e 11 15
e 11 21
e 12 2
e 12 10
e 12 16
e 12 21
e 12 22
e 13 2
e 13 9
e 13 10
e 13 18
e 13 23
e 14 7
e 14 10
e 14 13
e 14 16
e 14 18
e 15 3
e 15 4
e 15 8
e 15 16
e 15 21
e 16 1
e 16 1
e 16 3
e 16 13
e 16 21
e 17 3
e 17 4
e 17 8
e 17 12
e 17 13
e 18 1
e 18 5
e 18 13
e 18 20
e 18 21
e 19 4
e 19 7
e 19 11
e 19 11
e 19 12
e 20 3
e 20 10
e 20 11
e 20 12
e 20 18
e 21 5
e 21 13
e 21 14
e 21 15
e 21 22
e 22 2
e 22 9
e 22 10
e 22 15
e 22 18
e 23 5
e 23 10
e 23 12
e 23 16
e 23 17
e 24 10
e 24 10
e 24 12
e 24 12
e 24 14
